Examples/MILP1.lp
MAXIMIZE
    obj: 50 x1 + 54 x2 + 53 x3 + 58 x4 + 59 x5 + 65 x6
SUBJECT TO
    31 x1 + 35 x2 + 34 x3 + 31 x4 + 33 x5 + 32 x6 <= 152
    29 x1 + 28 x2 + 29 x3 + 29 x4 + 32 x5 + 31 x6 <= 154
    32 x1 + 31 x2 + 34 x3 + 32 x4 + 32 x5 + 32 x6 <= 156
    34 x1 + 35 x2 + 31 x3 + 37 x4 + 35 x5 + 25 x6 = 153
BOUNDS
    x1 <= 2
    x2 <= 2
    x3 <= 2
    x4 <= 2
    x5 <= 2
    x6 <= 2
GENERAL
    x3 x4 x5
END
