Examples/MILP1.mps
NAME obj
OBJSENSE MAX
ROWS
 N  OBJ
 L  R0      
 L  R1      
 L  R2      
 E  R3      
COLUMNS
    x1        OBJ       50
    x1        R0        31
    x1        R1        29
    x1        R2        32
    x1        R3        34
    x2        OBJ       54
    x2        R0        35
    x2        R1        28
    x2        R2        31
    x2        R3        35
    MARKER    'MARKER'                 'INTORG'
    x3        OBJ       53
    x3        R0        34
    x3        R1        29
    x3        R2        34
    x3        R3        31
    x4        OBJ       58
    x4        R0        31
    x4        R1        29
    x4        R2        32
    x4        R3        37
    x5        OBJ       59
    x5        R0        33
    x5        R1        32
    x5        R2        32
    x5        R3        35
    MARKER    'MARKER'                 'INTEND'
    x6        OBJ       65
    x6        R0        32
    x6        R1        31
    x6        R2        32
    x6        R3        25
RHS
    RHS1      R0        152
    RHS1      R1        154
    RHS1      R2        156
    RHS1      R3        153
BOUNDS
 UP BND1      x1        2
 UP BND1      x2        2
 UP BND1      x3        2
 UP BND1      x4        2
 UP BND1      x5        2
 UP BND1      x6        2
ENDATA
